(set-logic QF_RDL)
(declare-fun x0 () Real)
(declare-fun x1 () Real)
(declare-fun x2 () Real)
(declare-fun x3 () Real)
(declare-fun x4 () Real)
(declare-fun x5 () Real)
(declare-fun x6 () Real)
(declare-fun x7 () Real)
(declare-fun x8 () Real)
(declare-fun x9 () Real)
(assert (let ((.def_0 (<= x9 1.0))) (let ((.def_1 (<= 0.0 x9))) (let ((.def_2 (<= x8 1.0))) (let ((.def_3 (<= 0.0 x8))) (let ((.def_4 (<= x7 1.0))) (let ((.def_5 (<= 0.0 x7))) (let ((.def_6 (<= x6 1.0))) (let ((.def_7 (<= 0.0 x6))) (let ((.def_8 (<= x5 1.0))) (let ((.def_9 (<= 0.0 x5))) (let ((.def_10 (<= x4 1.0))) (let ((.def_11 (<= 0.0 x4))) (let ((.def_12 (<= x3 1.0))) (let ((.def_13 (<= 0.0 x3))) (let ((.def_14 (<= x2 1.0))) (let ((.def_15 (<= 0.0 x2))) (let ((.def_16 (<= x1 1.0))) (let ((.def_17 (<= 0.0 x1))) (let ((.def_18 (<= x0 1.0))) (let ((.def_19 (<= 0.0 x0))) (let ((.def_20 (and .def_19 .def_18 .def_17 .def_16 .def_15 .def_14 .def_13 .def_12 .def_11 .def_10 .def_9 .def_8 .def_7 .def_6 .def_5 .def_4 .def_3 .def_2 .def_1 .def_0))) (let ((.def_21 (<= x8 x9))) (let ((.def_22 (not .def_21))) (let ((.def_23 (<= x6 x7))) (let ((.def_24 (not .def_23))) (let ((.def_25 (or .def_24 .def_22))) (let ((.def_26 (<= x4 x5))) (let ((.def_27 (not .def_26))) (let ((.def_28 (or .def_27 .def_22))) (let ((.def_29 (or .def_27 .def_24))) (let ((.def_30 (<= x2 x3))) (let ((.def_31 (not .def_30))) (let ((.def_32 (or .def_31 .def_22))) (let ((.def_33 (or .def_31 .def_24))) (let ((.def_34 (or .def_31 .def_27))) (let ((.def_35 (<= x0 x1))) (let ((.def_36 (not .def_35))) (let ((.def_37 (or .def_36 .def_22))) (let ((.def_38 (or .def_36 .def_24))) (let ((.def_39 (or .def_36 .def_27))) (let ((.def_40 (or .def_36 .def_31))) (let ((.def_41 (or .def_35 .def_30 .def_26 .def_23 .def_21))) (let ((.def_42 (and .def_41 .def_40))) (let ((.def_43 (and .def_42 .def_39))) (let ((.def_44 (and .def_43 .def_38))) (let ((.def_45 (and .def_44 .def_37))) (let ((.def_46 (and .def_45 .def_34))) (let ((.def_47 (and .def_46 .def_33))) (let ((.def_48 (and .def_47 .def_32))) (let ((.def_49 (and .def_48 .def_29))) (let ((.def_50 (and .def_49 .def_28))) (let ((.def_51 (and .def_50 .def_25))) (let ((.def_52 (and .def_51 .def_20))) .def_52))))))))))))))))))))))))))))))))))))))))))))))))))))))
(check-sat)
